letting n =  10
letting blocks =  [[1, 1], [1, 9], [2, 3], [2, 4], [2, 9], [3, 1], [3, 3], [3, 5], [3, 7], [4, 1], [4, 10], [5, 3], [5, 4], [5, 5], [5, 8], [5, 10], [6, 2], [6, 4], [6, 5], [6, 6], [6, 7], [6, 9], [7, 2], [7, 3], [7, 5], [8, 1], [8, 7], [9, 2], [10, 1], [10, 3], [10, 4], [10, 5], [10, 8], [10, 10]]
